c translation to DIMACS format of graph 2D Grid Graph for [5, 5]
c
p sp 25 80
a 0 1 1
a 1 0 1
a 0 5 1
a 5 0 1
a 1 2 1
a 2 1 1
a 1 6 1
a 6 1 1
a 2 3 1
a 3 2 1
a 2 7 1
a 7 2 1
a 3 4 1
a 4 3 1
a 3 8 1
a 8 3 1
a 4 9 1
a 9 4 1
a 5 6 1
a 6 5 1
a 5 10 1
a 10 5 1
a 6 7 1
a 7 6 1
a 6 11 1
a 11 6 1
a 7 8 1
a 8 7 1
a 7 12 1
a 12 7 1
a 8 9 1
a 9 8 1
a 8 13 1
a 13 8 1
a 9 14 1
a 14 9 1
a 10 11 1
a 11 10 1
a 10 15 1
a 15 10 1
a 11 12 1
a 12 11 1
a 11 16 1
a 16 11 1
a 12 13 1
a 13 12 1
a 12 17 1
a 17 12 1
a 13 14 1
a 14 13 1
a 13 18 1
a 18 13 1
a 14 19 1
a 19 14 1
a 15 16 1
a 16 15 1
a 15 20 1
a 20 15 1
a 16 17 1
a 17 16 1
a 16 21 1
a 21 16 1
a 17 18 1
a 18 17 1
a 17 22 1
a 22 17 1
a 18 19 1
a 19 18 1
a 18 23 1
a 23 18 1
a 19 24 1
a 24 19 1
a 20 21 1
a 21 20 1
a 21 22 1
a 22 21 1
a 22 23 1
a 23 22 1
a 23 24 1
a 24 23 1
c end
